Solver command line: ['C:\\Program Files\\IBM\\ILOG\\CPLEX_Studio221\\cplex\\bin\\x64_win64\\cplex.exe']


Welcome to IBM(R) ILOG(R) CPLEX(R) Interactive Optimizer 22.1.0.0
  with Simplex, Mixed Integer & Barrier Optimizers
5725-A06 5725-A29 5724-Y48 5724-Y49 5724-Y54 5724-Y55 5655-Y21
Copyright IBM Corp. 1988, 2022.  All Rights Reserved.

Type 'help' for a list of available commands.
Type 'help' followed by a command name for more
information on commands.

CPLEX> Logfile 'cplex.log' closed.
Logfile 'data\30_bus\3.5_trips_per_bus\3_6_3\step3_15.log' open.
CPLEX> New value for mixed integer solutions limit: 1
CPLEX> New value for time limit in seconds: 501
CPLEX> New value for default parallel thread count: 1
CPLEX> Problem 'C:\Users\Mathis\AppData\Local\Temp\tmpvaa2c9nf.pyomo.lp' read.
Read time = 0.11 sec. (10.46 ticks)
CPLEX> Problem name         : C:\Users\Mathis\AppData\Local\Temp\tmpvaa2c9nf.pyomo.lp
Objective sense      : Minimize
Variables            :   76785  [Nneg: 15128,  Binary: 61657]
Objective nonzeros   :       1
Linear constraints   :   77791  [Less: 75720,  Greater: 345,  Equal: 1726]
  Nonzeros           :  412386
  RHS nonzeros       :   63669

Variables            : Min LB: 0.000000         Max UB: 1.000000       
Objective nonzeros   : Min   : 1.240367e+07     Max   : 1.240367e+07   
Linear constraints   :
  Nonzeros           : Min   : 0.2192982        Max   : 10000.00       
  RHS nonzeros       : Min   : 1.000000         Max   : 10000.00       
CPLEX> Version identifier: 22.1.0.0 | 2022-03-09 | 1a383f8ce
CPXPARAM_Threads                                 1
CPXPARAM_MIP_Limits_Solutions                    1
CPXPARAM_TimeLimit                               501
Tried aggregator 2 times.
MIP Presolve eliminated 67255 rows and 40347 columns.
MIP Presolve modified 56314 coefficients.
Aggregator did 584 substitutions.
Reduced MIP has 9952 rows, 35854 columns, and 104090 nonzeros.
Reduced MIP has 35041 binaries, 0 generals, 0 SOSs, and 0 indicators.
Presolve time = 0.22 sec. (181.32 ticks)
Probing time = 0.02 sec. (11.07 ticks)
Tried aggregator 2 times.
Detecting symmetries...
Aggregator did 3 substitutions.
Reduced MIP has 9949 rows, 35851 columns, and 104084 nonzeros.
Reduced MIP has 35041 binaries, 0 generals, 0 SOSs, and 0 indicators.
Presolve time = 0.09 sec. (90.19 ticks)
Probing time = 0.02 sec. (11.00 ticks)
Clique table members: 3540.
MIP emphasis: balance optimality and feasibility.
MIP search method: dynamic search.
Parallel mode: none, using 1 thread.
Root relaxation solution time = 0.23 sec. (462.01 ticks)

        Nodes                                         Cuts/
   Node  Left     Objective  IInf  Best Integer    Best Bound    ItCnt     Gap

      0     0   1.24037e+07   822                 1.24037e+07     3781         
      0     0   1.24037e+07   439                   Cuts: 164     5572         
      0     0   1.24037e+07   605                  Cuts: 1359     7082         
      0     0   1.24037e+07   390                   Cuts: 132     8632         
      0     0   1.24037e+07   447                  Cuts: 1025     9874         
      0     2   1.24037e+07   116                 1.24037e+07     9874         
Elapsed time = 7.17 sec. (11214.73 ticks, tree = 0.01 MB, solutions = 0)
      5     7   1.24037e+07   185                 1.24037e+07    10877         
     10    12   1.24037e+07   224                 1.24037e+07    11582         
     20    22   1.24037e+07   236                 1.24037e+07    12653         
     28    30   1.24037e+07   290                 1.24037e+07    13752         
     40    42   1.24037e+07   235                 1.24037e+07    14506         
     46    48   1.24037e+07   318                 1.24037e+07    15830         
     50    52   1.24037e+07   294                 1.24037e+07    16256         
     62    62   1.24037e+07   237                 1.24037e+07    17195         
     70    70   1.24037e+07   230                 1.24037e+07    17609         
    107   107   1.24037e+07   186                 1.24037e+07    21262         
Elapsed time = 9.09 sec. (15253.77 ticks, tree = 2.54 MB, solutions = 0)
*   110+    1                       1.24037e+07   1.24037e+07             0.00%

Clique cuts applied:  6
Implied bound cuts applied:  860
Flow cuts applied:  6
Mixed integer rounding cuts applied:  192
Multi commodity flow cuts applied:  22
Gomory fractional cuts applied:  11

Root node processing (before b&c):
  Real time             =    7.08 sec. (11143.66 ticks)
Sequential b&c:
  Real time             =    2.11 sec. (4299.13 ticks)
                          ------------
Total (root+branch&cut) =    9.19 sec. (15442.78 ticks)

Solution pool: 1 solution saved.

MIP - Integer optimal solution:  Objective =  1.2403672000e+07
Solution time =    9.19 sec.  Iterations = 21441  Nodes = 110
Deterministic time = 15443.00 ticks  (1680.96 ticks/sec)

CPLEX> Incumbent solution written to file 'C:\Users\Mathis\AppData\Local\Temp\tmpi4wku9gw.cplex.sol'.
CPLEX> 
